words_hard_train/4299.qaiger
aag 155 24 0 1 131
2
4
8
12
20
24
28
34
38
40
44
46
58
60
72
74
86
88
100
102
114
116
168
170
311
6 2 4
10 8 4
14 11 13
16 15 4
18 7 17
22 18 21
26 22 25
30 26 29
32 30 4
36 32 35
42 38 40
48 45 47
50 44 46
52 49 51
54 42 52
56 55 51
62 59 61
64 58 60
66 63 65
68 57 66
70 69 65
76 73 75
78 72 74
80 77 79
82 71 80
84 83 79
90 87 89
92 86 88
94 91 93
96 85 94
98 97 93
104 101 103
106 100 102
108 105 107
110 99 108
112 111 107
118 115 117
120 114 116
122 119 121
124 112 123
126 113 122
128 125 127
130 84 95
132 131 97
134 39 41
136 135 43
138 136 52
140 56 67
142 141 69
144 138 142
146 70 81
148 147 83
150 144 148
152 132 150
154 98 109
156 155 111
158 152 156
160 128 158
162 37 160
164 36 161
166 163 165
172 168 171
174 169 170
176 173 175
178 127 121
180 177 178
182 176 179
184 181 183
186 167 184
188 166 185
190 187 189
192 31 4
194 193 34
196 192 35
198 195 197
200 129 159
202 201 161
204 199 202
206 198 203
208 205 207
210 27 4
212 211 28
214 210 29
216 213 215
218 153 157
220 219 159
222 217 221
224 17 2
226 16 3
228 225 227
230 139 143
232 231 145
234 229 232
236 228 233
238 235 237
240 216 220
242 239 241
244 223 242
246 10 12
248 247 15
250 43 53
252 251 55
254 249 252
256 248 253
258 255 257
260 258 8
262 261 137
264 259 9
266 265 136
268 263 267
270 145 149
272 23 4
274 273 24
276 272 25
278 275 277
280 279 132
282 278 133
284 281 283
286 271 285
288 19 20
290 289 23
292 287 291
294 285 291
296 295 151
298 292 297
300 286 296
302 299 301
304 268 303
306 244 304
308 209 306
310 190 308
i0 2 y1[2]
i1 2 y1[7]
i2 2 y1[0]
i3 2 y1[1]
i4 2 y1[3]
i5 2 y1[4]
i6 2 y1[5]
i7 2 y1[6]
i8 1 x1[0]
i9 2 y2[0]
i10 1 x1[1]
i11 2 y2[1]
i12 1 x1[2]
i13 2 y2[2]
i14 1 x1[3]
i15 2 y2[3]
i16 1 x1[4]
i17 2 y2[4]
i18 1 x1[5]
i19 2 y2[5]
i20 1 x1[6]
i21 2 y2[6]
i22 1 x1[7]
i23 2 y2[7]
o0 bool[0]
c
simplified
  !=
    abs
      2 y1
    add
      1
      add
        1 x1
        2 y2
