words_hard_train/4299.qaiger.qdimacs
p cnf 155 394
a 36 43 50 19 84 22 57 29 0
e 1 2 3 4 5 6 7 8 9 10 11 12 13 14 15 16 17 18 20 21 23 24 25 26 27 28 30 31 32 33 34 35 37 38 39 40 41 42 44 45 46 47 48 49 51 52 53 54 55 56 58 59 60 61 62 63 64 65 66 67 68 69 70 71 72 73 74 75 76 77 78 79 80 81 82 83 85 86 87 88 89 90 91 92 93 94 95 96 97 98 99 100 101 102 103 104 105 106 107 108 109 110 111 112 113 114 115 116 117 118 119 120 121 122 123 124 125 126 127 128 129 130 131 132 133 134 135 136 137 138 139 140 141 142 143 144 145 146 147 148 149 150 151 152 153 154 155 0
-1 -2 3 0
1 -3 0
2 -3 0
-4 -2 5 0
4 -5 0
2 -5 0
5 6 7 0
-5 -7 0
-6 -7 0
7 -2 8 0
-7 -8 0
2 -8 0
3 8 9 0
-3 -9 0
-8 -9 0
-9 10 11 0
9 -11 0
-10 -11 0
-11 12 13 0
11 -13 0
-12 -13 0
-13 14 15 0
13 -15 0
-14 -15 0
-15 -2 16 0
15 -16 0
2 -16 0
-16 17 18 0
16 -18 0
-17 -18 0
-19 -20 21 0
19 -21 0
20 -21 0
22 23 24 0
-22 -24 0
-23 -24 0
-22 -23 25 0
22 -25 0
23 -25 0
24 25 26 0
-24 -26 0
-25 -26 0
-21 -26 27 0
21 -27 0
26 -27 0
27 25 28 0
-27 -28 0
-25 -28 0
29 30 31 0
-29 -31 0
-30 -31 0
-29 -30 32 0
29 -32 0
30 -32 0
31 32 33 0
-31 -33 0
-32 -33 0
28 -33 34 0
-28 -34 0
33 -34 0
34 32 35 0
-34 -35 0
-32 -35 0
36 37 38 0
-36 -38 0
-37 -38 0
-36 -37 39 0
36 -39 0
37 -39 0
38 39 40 0
-38 -40 0
-39 -40 0
35 -40 41 0
-35 -41 0
40 -41 0
41 39 42 0
-41 -42 0
-39 -42 0
43 44 45 0
-43 -45 0
-44 -45 0
-43 -44 46 0
43 -46 0
44 -46 0
45 46 47 0
-45 -47 0
-46 -47 0
42 -47 48 0
-42 -48 0
47 -48 0
48 46 49 0
-48 -49 0
-46 -49 0
50 51 52 0
-50 -52 0
-51 -52 0
-50 -51 53 0
50 -53 0
51 -53 0
52 53 54 0
-52 -54 0
-53 -54 0
49 -54 55 0
-49 -55 0
54 -55 0
55 53 56 0
-55 -56 0
-53 -56 0
57 58 59 0
-57 -59 0
-58 -59 0
-57 -58 60 0
57 -60 0
58 -60 0
59 60 61 0
-59 -61 0
-60 -61 0
-56 61 62 0
56 -62 0
-61 -62 0
56 -61 63 0
-56 -63 0
61 -63 0
62 63 64 0
-62 -64 0
-63 -64 0
-42 47 65 0
42 -65 0
-47 -65 0
65 48 66 0
-65 -66 0
-48 -66 0
19 20 67 0
-19 -67 0
-20 -67 0
67 21 68 0
-67 -68 0
-21 -68 0
-68 -26 69 0
68 -69 0
26 -69 0
-28 33 70 0
28 -70 0
-33 -70 0
70 34 71 0
-70 -71 0
-34 -71 0
-69 -71 72 0
69 -72 0
71 -72 0
-35 40 73 0
35 -73 0
-40 -73 0
73 41 74 0
-73 -74 0
-41 -74 0
-72 -74 75 0
72 -75 0
74 -75 0
-66 -75 76 0
66 -76 0
75 -76 0
-49 54 77 0
49 -77 0
-54 -77 0
77 55 78 0
-77 -78 0
-55 -78 0
-76 -78 79 0
76 -79 0
78 -79 0
-64 -79 80 0
64 -80 0
79 -80 0
18 -80 81 0
-18 -81 0
80 -81 0
-18 80 82 0
18 -82 0
-80 -82 0
81 82 83 0
-81 -83 0
-82 -83 0
-84 85 86 0
84 -86 0
-85 -86 0
84 -85 87 0
-84 -87 0
85 -87 0
86 87 88 0
-86 -88 0
-87 -88 0
63 60 89 0
-63 -89 0
-60 -89 0
88 -89 90 0
-88 -90 0
89 -90 0
-88 89 91 0
88 -91 0
-89 -91 0
90 91 92 0
-90 -92 0
-91 -92 0
83 -92 93 0
-83 -93 0
92 -93 0
-83 92 94 0
83 -94 0
-92 -94 0
93 94 95 0
-93 -95 0
-94 -95 0
15 -2 96 0
-15 -96 0
2 -96 0
96 -17 97 0
-96 -97 0
17 -97 0
-96 17 98 0
96 -98 0
-17 -98 0
97 98 99 0
-97 -99 0
-98 -99 0
64 79 100 0
-64 -100 0
-79 -100 0
100 80 101 0
-100 -101 0
-80 -101 0
99 -101 102 0
-99 -102 0
101 -102 0
-99 101 103 0
99 -103 0
-101 -103 0
102 103 104 0
-102 -104 0
-103 -104 0
13 -2 105 0
-13 -105 0
2 -105 0
105 -14 106 0
-105 -106 0
14 -106 0
-105 14 107 0
105 -107 0
-14 -107 0
106 107 108 0
-106 -108 0
-107 -108 0
76 78 109 0
-76 -109 0
-78 -109 0
109 79 110 0
-109 -110 0
-79 -110 0
108 110 111 0
-108 -111 0
-110 -111 0
8 -1 112 0
-8 -112 0
1 -112 0
-8 1 113 0
8 -113 0
-1 -113 0
112 113 114 0
-112 -114 0
-113 -114 0
69 71 115 0
-69 -115 0
-71 -115 0
115 72 116 0
-115 -116 0
-72 -116 0
114 -116 117 0
-114 -117 0
116 -117 0
-114 116 118 0
114 -118 0
-116 -118 0
117 118 119 0
-117 -119 0
-118 -119 0
-108 -110 120 0
108 -120 0
110 -120 0
119 120 121 0
-119 -121 0
-120 -121 0
111 -121 122 0
-111 -122 0
121 -122 0
-5 -6 123 0
5 -123 0
6 -123 0
123 7 124 0
-123 -124 0
-7 -124 0
21 26 125 0
-21 -125 0
-26 -125 0
125 27 126 0
-125 -126 0
-27 -126 0
124 -126 127 0
-124 -127 0
126 -127 0
-124 126 128 0
124 -128 0
-126 -128 0
127 128 129 0
-127 -129 0
-128 -129 0
-129 -4 130 0
129 -130 0
4 -130 0
130 68 131 0
-130 -131 0
-68 -131 0
129 4 132 0
-129 -132 0
-4 -132 0
132 -68 133 0
-132 -133 0
68 -133 0
131 133 134 0
-131 -134 0
-133 -134 0
72 74 135 0
-72 -135 0
-74 -135 0
11 -2 136 0
-11 -136 0
2 -136 0
136 -12 137 0
-136 -137 0
12 -137 0
-136 12 138 0
136 -138 0
-12 -138 0
137 138 139 0
-137 -139 0
-138 -139 0
139 -66 140 0
-139 -140 0
66 -140 0
-139 66 141 0
139 -141 0
-66 -141 0
140 141 142 0
-140 -142 0
-141 -142 0
135 142 143 0
-135 -143 0
-142 -143 0
9 -10 144 0
-9 -144 0
10 -144 0
144 11 145 0
-144 -145 0
-11 -145 0
143 145 146 0
-143 -146 0
-145 -146 0
142 145 147 0
-142 -147 0
-145 -147 0
147 75 148 0
-147 -148 0
-75 -148 0
-146 148 149 0
146 -149 0
-148 -149 0
-143 -148 150 0
143 -150 0
148 -150 0
149 150 151 0
-149 -151 0
-150 -151 0
-134 151 152 0
134 -152 0
-151 -152 0
-122 -152 153 0
122 -153 0
152 -153 0
104 -153 154 0
-104 -154 0
153 -154 0
-95 -154 155 0
95 -155 0
154 -155 0
-155 0
